87 86 85 90 89 77 74 75 76 64 65 66 67 68 70 69 124 125 126 127 128 129 130 131 132 133 134 135 136 137 138 139 140 141 151 150 149 152 148 147 142 143 144 146 145 158 157 159 156 155 153 154 164 166 167 163 168 162 160 161 113 112 114 115 116 117 122 123 71 72 73 119 120 121 118 106 105 104 103 102 99 100 101 551 550 560 561 562 563 565 566 564 549 548 545 546 547 544 543 541 542 107 110 111 109 108 173 174 175 172 170 171 169 180 181 179 182 183 185 186 188 187 178 177 176 540 538 539 537 536 484 485 483 482 481 480 479 478 477 476 475 567 474 473 472 471 470 469 468 467 466 465 464 496 497 463 462 461 459 460 571 572 573 458 457 456 455 454 439 440 441 450 449 448 447 446 442 443 444 445 431 382 386 387 388 389 390 381 392 391 393 394 397 398 370 369 368 365 367 366 329 328 327 326 325 324 323 322 373 374 372 371 396 395 375 376 379 380 378 377 315 314 316 313 312 451 311 310 309 308 505 504 503 502 501 453 452 499 500 498 519 518 495 494 524 525 493 492 491 490 486 487 535 534 488 489 532 533 231 230 229 228 227 189 190 192 191 226 225 224 222 221 220 218 219 193 194 195 196 184 197 198 199 200 201 165 203 204 202 208 207 206 205 209 210 211 212 213 214 215 216 217 223 246 238 239 240 237 236 235 234 232 233 531 530 529 528 526 523 522 521 520 517 516 515 514 513 527 512 511 510 509 506 507 508 302 301 303 304 307 305 306 318 317 319 320 321 297 298 299 300 241 242 243 244 245 247 248 249 250 251 252 254 253 255 256 257 258 259 260 261 262 263 264 265 266 267 271 272 269 268 270 296 295 294 293 291 292 273 274 275 276 277 290 289 288 278 279 282 281 280 287 286 285 284 283 334 335 336 337 338 339 333 332 331 330 340 341 342 343 344 345 346 364 399 400 404 406 407 408 405 409 385 383 384 410 411 412 356 402 403 401 360 359 361 363 362 347 348 350 349 358 357 355 354 353 352 351 415 416 414 413 417 418 419 420 421 422 423 424 425 426 427 428 429 430 432 433 434 435 436 438 437 3 2 1 4 0 5 6 7 8 9 10 11 17 18 570 569 568 20 19 16 15 14 13 12 23 22 21 24 25 26 27 28 29 31 30 32 36 37 38 35 33 34 558 559 552 553 554 98 96 95 97 94 93 92 91 555 556 557 41 40 39 42 43 44 45 46 47 48 49 50 84 51 52 54 53 55 56 83 82 57 58 59 81 80 79 61 60 63 62 78 88